c 3 - XORSAT
p cnf 30 120
21 24 26 0
-21 -24 26 0
-21 24 -26 0
21 -24 -26 0
-9 -19 -25 0
-9 19 25 0
9 -19 25 0
9 19 -25 0
-4 -5 -12 0
-4 5 12 0
4 -5 12 0
4 5 -12 0
-7 -10 -14 0
-7 10 14 0
7 -10 14 0
7 10 -14 0
26 29 30 0
-26 -29 30 0
-26 29 -30 0
26 -29 -30 0
-9 -18 -24 0
-9 18 24 0
9 -18 24 0
9 18 -24 0
-4 -5 -12 0
-4 5 12 0
4 -5 12 0
4 5 -12 0
25 27 28 0
-25 -27 28 0
-25 27 -28 0
25 -27 -28 0
-1 -2 -10 0
-1 2 10 0
1 -2 10 0
1 2 -10 0
-9 -15 -23 0
-9 15 23 0
9 -15 23 0
9 15 -23 0
-3 -16 -19 0
-3 16 19 0
3 -16 19 0
3 16 -19 0
2 18 20 0
-2 -18 20 0
-2 18 -20 0
2 -18 -20 0
-6 -8 -14 0
-6 8 14 0
6 -8 14 0
6 8 -14 0
-13 -17 -19 0
-13 17 19 0
13 -17 19 0
13 17 -19 0
11 20 22 0
-11 -20 22 0
-11 20 -22 0
11 -20 -22 0
-1 -11 -17 0
-1 11 17 0
1 -11 17 0
1 11 -17 0
6 15 22 0
-6 -15 22 0
-6 15 -22 0
6 -15 -22 0
26 29 30 0
-26 -29 30 0
-26 29 -30 0
26 -29 -30 0
-8 -13 -17 0
-8 13 17 0
8 -13 17 0
8 13 -17 0
21 23 25 0
-21 -23 25 0
-21 23 -25 0
21 -23 -25 0
1 11 15 0
-1 -11 15 0
-1 11 -15 0
1 -11 -15 0
27 28 29 0
-27 -28 29 0
-27 28 -29 0
27 -28 -29 0
8 10 20 0
-8 -10 20 0
-8 10 -20 0
8 -10 -20 0
3 7 27 0
-3 -7 27 0
-3 7 -27 0
3 -7 -27 0
-2 -14 -16 0
-2 14 16 0
2 -14 16 0
2 14 -16 0
3 21 23 0
-3 -21 23 0
-3 21 -23 0
3 -21 -23 0
-7 -16 -30 0
-7 16 30 0
7 -16 30 0
7 16 -30 0
18 22 28 0
-18 -22 28 0
-18 22 -28 0
18 -22 -28 0
6 13 24 0
-6 -13 24 0
-6 13 -24 0
6 -13 -24 0
-4 -5 -12 0
-4 5 12 0
4 -5 12 0
4 5 -12 0
